; benchmark generated from python API
(set-info :status unknown)
(declare-datatypes ((RealState 0)) (((RMk1 (rval1 Real)) (RMk2 (rval2 Real)))))
 (assert
 (forall ((?x1 Real) )(exists ((?x2_st RealState) (val!586 Real) )(forall ((?x3 Real) )(exists ((?x4_st RealState) (val!587 Real) )(let ((?x26883 (- 22.0)))
 (let (($x3391 (<= (+ (+ (* (- 21.0) ?x1) (* 47.0 (rval2 ?x2_st))) (* 48.0 ?x3)) ?x26883)))
 (let (($x5436 (or (<= (+ (* (- 75.0) (rval2 ?x2_st)) (* 17.0 ?x3)) 71.0) $x3391)))
 (let ((?x27045 (- 80.0)))
 (let (($x14070 (< (+ (+ (* 43.0 ?x1) (* 60.0 ?x3)) (* (- 23.0) (rval2 ?x4_st))) ?x27045)))
 (let ((?x23131 (+ (+ (+ (* 21.0 ?x1) (* 98.0 (rval2 ?x2_st))) (* 97.0 ?x3)) (* (- 75.0) (rval2 ?x4_st)))))
 (let ((?x19830 (+ (+ (* (- 84.0) ?x1) (* 52.0 ?x3)) (* (- 40.0) (rval2 ?x4_st)))))
 (let ((?x36007 (+ (+ (* (- 33.0) ?x1) (* (- 100.0) (rval2 ?x2_st))) (* (- 71.0) ?x3))))
 (let ((?x21484 (* 80.0 ?x3)))
 (let ((?x11776 (+ (+ (+ (* (- 23.0) ?x1) (* (- 100.0) (rval2 ?x2_st))) ?x21484) (* (- 32.0) (rval2 ?x4_st)))))
 (let (($x10123 (and (not (= ?x11776 12.0)) (> (+ ?x36007 (* (- 33.0) (rval2 ?x4_st))) 0.0))))
 (let (($x21450 (and (or $x10123 (and (< ?x19830 34.0) (not (= ?x23131 63.0)))) (and $x14070 $x5436))))
 (let ((?x27702 (- 97.0)))
 (let ((?x8479 (+ (+ (+ (* 80.0 ?x1) (* 68.0 (rval2 ?x2_st))) (* 86.0 ?x3)) (* (- 19.0) (rval2 ?x4_st)))))
 (let (($x5140 (< (+ (+ (* 46.0 ?x1) (* 90.0 (rval2 ?x2_st))) (* (- 87.0) ?x3)) 1.0)))
 (let ((?x10390 (- 39.0)))
 (let ((?x32057 (+ (+ (* 17.0 ?x1) (* 94.0 (rval2 ?x2_st))) (* (- 60.0) (rval2 ?x4_st)))))
 (let ((?x15897 (+ (+ (* (- 21.0) ?x1) (* 35.0 (rval2 ?x2_st))) (* (- 9.0) ?x3))))
 (let ((?x12491 (rval2 ?x4_st)))
 (let ((?x3660 (* 29.0 ?x12491)))
 (let ((?x16417 (* 48.0 ?x12491)))
 (let ((?x15142 (+ (+ (+ (* 47.0 ?x1) (* (- 30.0) (rval2 ?x2_st))) (* 27.0 ?x3)) ?x16417)))
 (let (($x15506 (and (>= ?x15142 70.0) (= (+ (+ (* (- 2.0) ?x1) (* 39.0 (rval2 ?x2_st))) ?x3660) 0.0))))
 (let (($x31383 (and (and $x15506 (<= (+ ?x15897 (* (- 58.0) ?x12491)) 0.0)) (or (= ?x32057 ?x10390) (and $x5140 (= ?x8479 ?x27702))))))
 (let ((?x5783 (+ (+ (* (- 2.0) ?x1) (* 53.0 (rval2 ?x2_st))) (* (- 14.0) ?x3))))
 (let ((?x39443 (* 75.0 ?x12491)))
 (let ((?x14822 (+ (+ (+ (* 9.0 ?x1) (* 47.0 (rval2 ?x2_st))) (* 39.0 ?x3)) ?x39443)))
 (let ((?x2883 (- 95.0)))
 (let ((?x34403 (* ?x2883 ?x3)))
 (let ((?x3253 (+ (+ (+ (* (- 51.0) ?x1) (* (- 18.0) (rval2 ?x2_st))) ?x34403) (* (- 70.0) ?x12491))))
 (let ((?x12418 (* 69.0 ?x12491)))
 (let ((?x25773 (+ (+ (+ (* 96.0 ?x1) (* (- 38.0) (rval2 ?x2_st))) (* 29.0 ?x3)) ?x12418)))
 (let (($x25658 (and (and (= ?x25773 45.0) (> ?x3253 68.0)) (or (= ?x14822 42.0) (not (= (+ ?x5783 (* 95.0 ?x12491)) 20.0))))))
 (let (($x9390 (or (<= (+ (* 57.0 ?x1) (* 42.0 ?x12491)) 45.0) (> (* (- 57.0) ?x3) (- 7.0)))))
 (let ((?x15947 (+ (+ (+ (* 42.0 ?x1) (* (- 96.0) (rval2 ?x2_st))) (* 34.0 ?x3)) (* (- 46.0) ?x12491))))
 (let (($x9441 (or (<= ?x15947 0.0) (>= (+ (* (- 46.0) ?x1) (* (- 72.0) (rval2 ?x2_st))) 0.0))))
 (let ((?x23864 (- 11.0)))
 (let ((?x14705 (+ (+ (+ (* 74.0 ?x1) (* ?x26883 (rval2 ?x2_st))) (* (- 87.0) ?x3)) (* 9.0 ?x12491))))
 (let ((?x6378 (+ (+ (+ (* 25.0 ?x1) (* 63.0 (rval2 ?x2_st))) (* 5.0 ?x3)) (* (- 44.0) ?x12491))))
 (let ((?x9400 (* 29.0 ?x3)))
 (let ((?x39601 (+ (+ (+ (* (- 91.0) ?x1) (* (- 38.0) (rval2 ?x2_st))) ?x9400) (* (- 98.0) ?x12491))))
 (let (($x8072 (or (> ?x39601 48.0) (<= (+ (+ (* (- 79.0) ?x1) (* 34.0 ?x3)) ?x39443) (- 67.0)))))
 (let ((?x30076 (- 71.0)))
 (let ((?x1169 (+ (+ (+ (* 27.0 ?x1) (* 45.0 (rval2 ?x2_st))) (* (- 35.0) ?x3)) (* 97.0 ?x12491))))
 (let (($x15820 (< (+ (+ (* (- 55.0) ?x1) (* 16.0 (rval2 ?x2_st))) (* 10.0 ?x12491)) 49.0)))
 (let (($x15494 (= (+ (+ (* 29.0 ?x1) (* (- 5.0) ?x3)) (* (- 4.0) ?x12491)) 0.0)))
 (let ((?x2064 (* 18.0 ?x12491)))
 (let ((?x34973 (+ (+ (+ (* 46.0 ?x1) (* 74.0 (rval2 ?x2_st))) (* 58.0 ?x3)) ?x2064)))
 (let (($x28645 (and (or (and (< ?x34973 0.0) $x15494) (and $x15820 (>= ?x1169 ?x30076))) (and $x8072 (or (< ?x6378 ?x23864) (< ?x14705 ?x23864))))))
 (let ((?x10281 (* 56.0 ?x12491)))
 (let (($x188 (= (+ (+ (* (- 85.0) (rval2 ?x2_st)) (* (- 82.0) ?x3)) ?x10281) 6.0)))
 (let (($x8775 (or (> (+ (* (- 13.0) ?x3) (* (- 56.0) ?x12491)) (- 28.0)) $x188)))
 (let ((?x18422 (* 73.0 ?x12491)))
 (let ((?x1503 (+ (+ (+ (* 42.0 ?x1) (* 83.0 (rval2 ?x2_st))) (* 59.0 ?x3)) ?x18422)))
 (let (($x3079 (or (and (or (= (* (- 68.0) ?x3) (- 36.0)) (<= ?x1503 6.0)) $x8775) $x28645)))
 (let ((?x278 (- 29.0)))
 (let ((?x8776 (- 62.0)))
 (let ((?x33764 (* ?x8776 ?x3)))
 (let (($x13753 (< (+ (+ (* (- 35.0) ?x1) (* (- 1.0) (rval2 ?x2_st))) ?x33764) ?x278)))
 (let (($x16114 (or (= (+ (* 62.0 ?x1) (* (- 83.0) (rval2 ?x2_st))) 0.0) (= (+ (* 79.0 ?x1) (* ?x2883 (rval2 ?x2_st))) 0.0))))
 (let ((?x21203 (+ (+ (* 15.0 ?x1) (* (- 33.0) (rval2 ?x2_st))) (* (- 19.0) ?x3))))
 (let (($x16093 (or (> (+ ?x21203 (* (- 100.0) ?x12491)) 0.0) (= (+ (* (- 57.0) (rval2 ?x2_st)) (* 15.0 ?x3)) 17.0))))
 (let (($x30761 (and $x16093 (not (= (+ (* 47.0 ?x1) (* ?x8776 (rval2 ?x2_st))) 0.0)))))
 (let (($x694 (> (+ (+ (* 27.0 (rval2 ?x2_st)) (* (- 60.0) ?x3)) (* 43.0 ?x12491)) 6.0)))
 (let ((?x11958 (- 30.0)))
 (let (($x7603 (= (+ (+ (* (- 98.0) ?x1) (* 13.0 (rval2 ?x2_st))) (* 68.0 ?x12491)) ?x11958)))
 (let (($x762 (< (+ (+ (* 41.0 (rval2 ?x2_st)) (* 14.0 ?x3)) (* (- 21.0) ?x12491)) 64.0)))
 (let (($x39288 (> (+ (+ (* 93.0 ?x1) (* (- 8.0) ?x3)) (* (- 36.0) ?x12491)) 69.0)))
 (let (($x7159 (>= (+ (+ (* 22.0 (rval2 ?x2_st)) (* 6.0 ?x3)) (* 46.0 ?x12491)) 0.0)))
 (let (($x16501 (or (and (< (+ (* 12.0 (rval2 ?x2_st)) (* 24.0 ?x12491)) 4.0) $x7159) (and (and $x39288 $x762) (or (not $x7603) $x694)))))
 (let (($x17004 (or (and (or $x16501 (or $x30761 (and $x16114 $x13753))) $x3079) (or (and (or $x9441 $x9390) $x25658) (and $x31383 $x21450)))))
 (let (($x636 (not (= ?x4_st (RMk1 val!587)))))
 (let (($x12990 (not (= ?x2_st (RMk1 val!586)))))
 (and $x12990 $x636 $x17004)))))))))))))))))))))))))))))))))))))))))))))))))))))))))))))))))))))))))))
 )
 )
 )
 )
(check-sat)
